TOUR_SECTION
1
3
150
87
173
149
125
74
86
68
116
52
10
89
30
88
25
129
28
98
84
135
80
110
43
27
114
157
175
97
72
78
82
170
91
96
93
143
70
71
69
160
21
134
164
33
100
199
20
8
137
23
138
40
36
142
45
127
50
131
42
55
26
147
193
12
156
191
139
201
111
172
109
119
117
95
124
165
187
106
123
47
104
51
154
14
144
174
58
158
64
4
180
105
44
195
56
11
6
13
62
200
198
67
76
140
2
31
120
113
48
7
9
15
81
90
46
190
18
163
60
145
29
75
92
188
184
5
32
186
73
183
112
102
39
169
16
155
115
24
59
17
151
122
103
159
141
99
108
19
128
34
168
54
37
126
57
162
194
171
118
136
77
176
179
35
53
61
79
63
65
181
167
41
49
197
101
178
121
161
133
166
66
152
22
38
182
94
130
146
185
83
189
132
153
85
148
192
177
196
107
-1
EOF